120
Lattice="13.675 0.0 0.0 -6.837499999999998 11.8428973967522 0.0 0.0 0.0 14.767" Properties=species:S:1:pos:R:3:spacegroup_kinds:I:1 spacegroup="P 1" unit_cell=conventional occupancy="_JSON {\"0\": {\"Si\": 1.0}, \"1\": {\"Si\": 1.0}, \"2\": {\"Si\": 1.0}, \"3\": {\"Si\": 1.0}, \"4\": {\"Si\": 1.0}, \"5\": {\"Si\": 1.0}, \"6\": {\"Si\": 1.0}, \"7\": {\"Si\": 1.0}, \"8\": {\"Si\": 1.0}, \"9\": {\"Si\": 1.0}, \"10\": {\"Si\": 1.0}, \"11\": {\"Si\": 1.0}, \"12\": {\"Si\": 1.0}, \"13\": {\"Si\": 1.0}, \"14\": {\"Si\": 1.0}, \"15\": {\"Si\": 1.0}, \"16\": {\"Si\": 1.0}, \"17\": {\"Si\": 1.0}, \"18\": {\"Si\": 1.0}, \"19\": {\"Si\": 1.0}, \"20\": {\"Si\": 1.0}, \"21\": {\"Si\": 1.0}, \"22\": {\"Si\": 1.0}, \"23\": {\"Si\": 1.0}, \"24\": {\"Si\": 1.0}, \"25\": {\"Si\": 1.0}, \"26\": {\"Si\": 1.0}, \"27\": {\"Si\": 1.0}, \"28\": {\"Si\": 1.0}, \"29\": {\"Si\": 1.0}, \"30\": {\"Si\": 1.0}, \"31\": {\"Si\": 1.0}, \"32\": {\"Si\": 1.0}, \"33\": {\"Al\": 1.0}, \"34\": {\"Al\": 1.0}, \"35\": {\"Al\": 1.0}, \"36\": {\"O\": 1.0}, \"37\": {\"O\": 1.0}, \"38\": {\"O\": 1.0}, \"39\": {\"O\": 1.0}, \"40\": {\"O\": 1.0}, \"41\": {\"O\": 1.0}, \"42\": {\"O\": 1.0}, \"43\": {\"O\": 1.0}, \"44\": {\"O\": 1.0}, \"45\": {\"O\": 1.0}, \"46\": {\"O\": 1.0}, \"47\": {\"O\": 1.0}, \"48\": {\"O\": 1.0}, \"49\": {\"O\": 1.0}, \"50\": {\"O\": 1.0}, \"51\": {\"O\": 1.0}, \"52\": {\"O\": 1.0}, \"53\": {\"O\": 1.0}, \"54\": {\"O\": 1.0}, \"55\": {\"O\": 1.0}, \"56\": {\"O\": 1.0}, \"57\": {\"O\": 1.0}, \"58\": {\"O\": 1.0}, \"59\": {\"O\": 1.0}, \"60\": {\"O\": 1.0}, \"61\": {\"O\": 1.0}, \"62\": {\"O\": 1.0}, \"63\": {\"O\": 1.0}, \"64\": {\"O\": 1.0}, \"65\": {\"O\": 1.0}, \"66\": {\"O\": 1.0}, \"67\": {\"O\": 1.0}, \"68\": {\"O\": 1.0}, \"69\": {\"O\": 1.0}, \"70\": {\"O\": 1.0}, \"71\": {\"O\": 1.0}, \"72\": {\"O\": 1.0}, \"73\": {\"O\": 1.0}, \"74\": {\"O\": 1.0}, \"75\": {\"O\": 1.0}, \"76\": {\"O\": 1.0}, \"77\": {\"O\": 1.0}, \"78\": {\"O\": 1.0}, \"79\": {\"O\": 1.0}, \"80\": {\"O\": 1.0}, \"81\": {\"O\": 1.0}, \"82\": {\"O\": 1.0}, \"83\": {\"O\": 1.0}, \"84\": {\"O\": 1.0}, \"85\": {\"O\": 1.0}, \"86\": {\"O\": 1.0}, \"87\": {\"O\": 1.0}, \"88\": {\"O\": 1.0}, \"89\": {\"O\": 1.0}, \"90\": {\"O\": 1.0}, \"91\": {\"O\": 1.0}, \"92\": {\"O\": 1.0}, \"93\": {\"O\": 1.0}, \"94\": {\"O\": 1.0}, \"95\": {\"O\": 1.0}, \"96\": {\"O\": 1.0}, \"97\": {\"O\": 1.0}, \"98\": {\"O\": 1.0}, \"99\": {\"O\": 1.0}, \"100\": {\"O\": 1.0}, \"101\": {\"O\": 1.0}, \"102\": {\"O\": 1.0}, \"103\": {\"O\": 1.0}, \"104\": {\"O\": 1.0}, \"105\": {\"O\": 1.0}, \"106\": {\"O\": 1.0}, \"107\": {\"O\": 1.0}, \"108\": {\"O\": 1.0}, \"109\": {\"O\": 1.0}, \"110\": {\"O\": 1.0}, \"111\": {\"O\": 1.0}, \"112\": {\"H\": 1.0}, \"113\": {\"H\": 1.0}, \"114\": {\"H\": 1.0}, \"115\": {\"H\": 1.0}, \"116\": {\"H\": 1.0}, \"117\": {\"H\": 1.0}, \"118\": {\"Ce\": 1.0}, \"119\": {\"Cu\": 1.0}}" pbc="T T T"
Si       2.15532359       0.69770061      11.94515920        0
Si       9.03739041       4.72952029       2.08109854        1
Si       9.02294961       7.12225928      11.82204672        2
Si       2.34612403      11.17533696       2.19128990        3
Si       2.31620313       3.49654440       7.15542368        4
Si       0.01221861       9.86955093      12.13106097        5
Si       0.08184488       1.97911396       2.14552696        6
Si       6.95841435       5.93833667       7.01749990        7
Si       0.15304376      10.03672527       9.04595409        8
Si       0.05532905       1.99199903      13.83508416        9
Si       6.85681594       5.87662333       3.86833379       10
Si       9.19007179       7.32782829       8.77771154       11
Si       2.18361033      11.08592308      13.76597460       12
Si       2.28239169       3.32864764       3.94067732       13
Si       2.36792881       0.78301685       8.84906568       14
Si       9.03609813       4.64568442      13.72803818       15
Si       2.20536725       8.65635268       3.88002925       16
Si      -1.41435739       7.35208255       8.91294772       17
Si       5.36593325       0.73037517       8.98196868       18
Si      -1.50317651       4.67023475      13.81656635       19
Si       7.61829464       9.94851937       8.71924898       20
Si       7.42444468       1.95469390      13.77557315       21
Si       0.72875443       5.98544772       3.89203482       22
Si       7.32937608       9.79708424      11.71077738       23
Si       7.52801229       1.97969426       2.14493628       24
Si       0.80423359       6.00324759       7.07481063       25
Si       5.24557274       0.60167840      12.16843624       26
Si      -1.51330969       4.64635946       2.15493354       27
Si       5.42720409       8.62344127       6.98570655       28
Si      -1.54057080       7.11919197      11.91061919       29
Si       5.40612408      11.04376237       2.11014523       30
Si       5.31177341       3.13667428       3.90646218       31
Si       5.26750060       8.56750726       3.81379926       32
Al       5.16625774       3.86468086       8.56722272       33
Al       2.41409561       8.67543159       7.15282469       34
Al       5.24309073      11.06796925      13.72319460       35
O       -5.31610839      11.03756853      11.89521721       36
O        8.54626646       3.21784549       2.39584238       37
O        2.15524838       6.89017402       7.47307662       38
O       -3.10691897       7.53082740      12.12519847       39
O        3.89215799      11.45479381       2.59614197       40
O        3.62621343       4.33189501       7.71129787       41
O       -1.07367211      10.96821652      12.62362902       42
O       -1.11505266       3.07869145       2.36159771       43
O        5.75324344       7.04729374       7.31400650       44
O       -1.06402440       8.93724252       9.01176849       45
O       12.64146401       0.84820015      13.59906320       46
O        5.86331351       4.63288225       3.56451753       47
O       -4.78899184       8.94154149       8.80231336       48
O        8.41087029       0.71051463      13.40083099       49
O        1.85433000       4.85577742       3.55633661       50
O        3.84846636       0.16081470       8.65108451       51
O       10.61067181       4.28616958      13.51537861       52
O        3.72718963       8.30746092       3.37578050       53
O        1.33986966       1.73703329      12.85409759       54
O        8.20568375       5.78840559       2.97227223       55
O        8.57287118       5.87616146      12.75617761       56
O        1.70198366       9.95444082       3.03379155       57
O        1.28250988       9.87979504      13.13632449       58
O        1.27051006       2.27602724       3.22130291       59
O        1.45564221       9.58949009       8.24986512       60
O        8.31180859       6.55318437       7.68750823       61
O        2.12022670       2.07954173       7.92590668       62
O       -0.45999281       6.59958485       7.86525861       63
O        5.59133144       2.17927076       8.35891942       64
O        6.62527768       9.59113626       7.51248975       65
O        5.92749713       9.97477508      12.48697520       66
O        6.20377999       2.07332420       3.06246906       67
O        6.01790255       1.78688005      12.97241079       68
O       -0.65930594       5.61067923       3.13893259       69
O       -1.08139849       5.94019600      12.90322740       70
O        5.93708330       9.83384460       3.06509759       71
O        3.66389489       0.65167912      12.52133801       72
O       10.59391994       4.85050733       2.49835489       73
O        4.05358453       8.97248698       7.77457446       74
O        8.06499535       8.41094416      12.11105168       75
O        8.30407538       0.63316867       2.54829689       76
O        1.04805884       4.46393147       7.54863936       77
O       -0.63121749       8.40529510      12.23313047       78
O       13.19632714       0.48872085       2.41121483       79
O        6.53018173       4.53542704       7.63828982       80
O       -0.41033889      11.44856444       8.46472497       81
O       -0.54808716       3.44113148      13.39786283       82
O        6.12551113       7.25048233       3.45716144       83
O       -2.93164650       7.15723136       8.38963478       84
O        3.61541701      10.90412276      13.01098220       85
O        3.77504529       3.03527539       3.38627984       86
O       -5.58078117      11.48254171       8.56003119       87
O        8.13477888       3.35045042      13.33347871       88
O        1.23999430       7.43125232       3.39200943       89
O        2.19565800       1.30605841      10.41116324       90
O        8.79241646       5.08603887       0.50547441       91
O        2.14596989       8.90340736       5.46813150       92
O        8.84375241       6.70351811      10.25389469       93
O        2.26715090      10.87019286       0.59088674       94
O        2.26425180       3.18204442       5.56633205       95
O        0.62017493      10.18193104      10.63695067       96
O        0.62486545       2.08877919       0.60494492       97
O        7.27732903       5.87417185       5.43171608       98
O       -1.26817847       6.64256272      10.37685950       99
O        5.41545043      10.54278412       0.58320790      100
O        5.28471059       2.77480270       5.48946981      101
O        5.52330515       0.78504198      10.60176091      102
O       -1.26579902       5.08515066       0.60271510      103
O        5.31065206       8.86790236       5.40754250      104
O        6.75795936       9.75332474      10.13541905      105
O        7.07177326       1.95920605       0.58540818      106
O        0.46714484       6.05613797       5.49855152      107
O        3.33700769       7.54805881      10.12797648      108
O        3.90041769      11.71107411       9.64639508      109
O        5.00753201       5.38644581       9.67242930      110
O        4.03097975       4.00659430      10.95269867      111
H        3.19262020       7.00568964      10.92546832      112
H       10.50934690       0.51386332       8.96187079      113
H        5.76743809       5.99083623       9.69144920      114
H        6.05787458       2.82990770       6.07679770      115
H        4.08472934       3.27251231      10.31944541      116
H        3.32631384       2.64957591      10.44018040      117
Ce       3.97547976       9.85844229      10.60474385      118
Cu       3.53013971       6.19102857       8.69606479      119
