Si Al O  H  Ce N  Cu
 1.0000000000000000
    13.6750001907000005    0.0000000000000000    0.0000000000000000
    -6.8375000954000003   11.8428975618999992    0.0000000000000000
     0.0000000000000000    0.0000000000000000   14.7670001983999999
 Si  Al  O   H   Ce  N   Cu 
  33   3  75  11   1   4   1
Cartesian
  2.1454868617156042  0.8391846420828679  7.4996777307548887
  9.0837398183543883  4.6835948544346682 12.5006261156534428
  9.0208156519540879  7.1266115848783604  7.5290908780220649
  2.2530540986467398 11.2387976813747787 12.5592589034171951
  2.1631974228277917  3.1577161877952538  2.5225755998547172
 -0.1250098912101010  9.9049712815973212  7.7362998890379933
  0.0458621147935943  2.0037771370902475 12.4344357396251510
  7.0951869306183948  5.9422540280998186  2.5632969909998238
  0.0593636407361027  9.8848019269891907  4.6184543431776079
 -0.0382090855661429  1.9685642352680353  9.2843350930084085
  6.9598461990183926  5.9787971715477735 14.2700900805778321
  9.0781159403284075  7.0656033007467496  4.4908331281879708
  2.1612242296665038 11.1569032157314094  9.3409873602395503
  2.2376150850025849  3.2699245511979931 14.1574645032506670
  2.3018672922092573  0.7436286006277117  4.4404608969662016
  9.0247723491696057  4.6769715126439166  9.3087039363768120
  2.2460034668467102  8.6824305887593507 14.2400266536899185
 -1.4194221213494049  7.1870713178378010  4.5449605927931929
  5.4975102109101117  0.8342488776659948  4.5816671319243580
 -1.5368355293886202  4.6684915005878986  9.3251216656923894
  7.6628081889550641  9.8264369894362940  4.3966362945644022
  7.5482007747399527  1.9846630083406773  9.3140857695991173
  0.6506398802479437  5.9998736802662478 14.2110855335840860
  7.5734821372967547  9.8602365124918769  7.5432566841083881
  7.5780506130186094  2.0091526875080814 12.5237245392277785
  0.6264263163732980  5.8774370088978136  2.5659598503106005
  5.2922433299227265  0.8121695242248762  7.6494997276778012
 -1.5191874083176289  4.6956752139355808 12.4953164044601053
  5.4562836476394949  8.6993251216478686  2.6690595311497822
 -1.4369170277180254  7.1042693309542662  7.5546225488210919
  5.3472523035962212 11.1423668406054173 12.5054739298475752
  5.3392205042301608  3.2205548983311343 14.2117838207224683
  5.3406276343767853  8.6683050437497791 14.2653815044285714
  2.2597727630014517  8.6286910369640246  2.6812640138037538
  5.2783459126483594 11.0125930915388679  9.2906495804292444
  5.3746852770750948  3.1327687095796968  2.5416649748461899
 -5.1265272776997923 11.1498716492617014  7.7871011163825257
  8.6020276667180937  3.2013488094819960 12.9488085144639360
  1.9042435167010208  6.8570021833332095  2.9061034644925536
 -3.0448743185790179  7.1703742178945369  7.5912547065722586
  3.8061200413033247 11.5134154798275503 12.9461282153259258
  3.6768156394331677  3.6943134944528451  2.8863276897978585
 -1.2232273107174170 11.0902890131385909  7.9388507975113383
 -0.9897612665033886  3.2009056364123323 12.8500142263675983
  6.0893426673364566  7.1940979931908178  2.9963221568646743
 -1.1097422310750109  8.7598027255397302  4.3140936660994118
 12.6274436760383058  0.7947567935106392  8.9462427185230133
  5.8926350647036028  4.7627216112320241 14.1875691005351339
  8.6140882920886881  8.5529616758760447  4.0116683520672183
  8.5464473925281421  0.8036386824525227  8.8175878282864897
  1.7013453987428122  4.7875847680169406 13.9503747062273398
  3.9005419040537541  0.5704360297041056  4.3388123101685157
 10.5837358271106421  4.4286633980129642  8.9122187083468880
  3.8050832916898605  8.3175848329358288 13.8705956923154812
  1.3610816303724966  1.8944077767768424  8.4384488047096191
  8.2004195636816046  5.8076809803250020 13.2591853560249611
  8.4474583942633448  5.9862696846224051  8.5327479293435609
  1.7282003777708115  9.8796693691435316 13.2757160381250561
  1.0888181542287725 10.0583489203081324  8.7850147349478576
  1.4475168348514986  2.2141750589218798 13.2358753951727834
  1.3805113851360484  9.5685068876661230  3.7866353798408183
  8.3908351346363990  5.9450565787504566  3.5202420631377280
  1.7675113265028819  1.8565054002899131  3.3802349676636818
 -0.6451849774235253  6.2343441507273587  3.4840129263559763
  6.0062096882488678  2.0510437400509609  3.6864094163082464
  6.3078545723101440  9.7982836506936284  3.4785488409425644
  6.2175038255373876  9.8696337095924740  8.3706696323629810
  6.1102622313738930  2.2884887437211048 13.1417209428397843
  6.0608171776364443  1.7981191692071998  8.6856347728566519
 -0.6620124685689333  5.8188460970165377 13.2896703069335373
 -0.8949658985304992  5.9357875691730708  8.5335299158390683
  5.9007967492330273  9.9477747228112658 13.4775482809997449
  3.7103188018864923  1.0609148786338141  7.8453614065662745
 10.6196498373846229  4.8655504945089181 12.9677405027672936
  3.9515265781689890  8.4471796358202162  3.2308720915439375
  8.4567184753316091  8.5611551727113486  7.9708266690609459
  8.1666332125198515  0.6198008980403489 13.1059073199096154
  1.1633363960544145  4.3800449756671496  2.9402191925069108
 -0.8512810694071447  8.5026771591725296  8.0873582065425875
 13.0928164793413391  0.5968689507179541 12.8870670516534176
  6.0544756082481008  4.7375725195283733  2.8617397189135101
 -0.5627696486706814 11.3151155160426082  4.1967731720981689
 -0.6604787557498770  3.4103732986404771  8.8592512802092518
  6.2276195308765256  7.3652607980583928 13.9051338451375130
 -3.0011413055805645  6.9121781009593306  4.3524696146030069
  3.6143211962194086 10.7443540435135017  8.8426348904400047
  3.7900254002885441  3.3037792858420110 13.6690171908052012
 -5.2223911554992597 11.1805943401591144  4.0340721950202223
  8.1263577318588780  3.4209743025924464  8.8216592083771896
  1.3585773754268913  7.3856402456692711 13.8106055661944911
  1.8605272966277002  1.2178610902953617  5.9322198753655240
  8.9125772459790795  4.9016520044638927 10.9065689353507072
  2.1068063099791017  9.0336706317188824  1.0269435621773590
  8.5610052233559983  6.7615939293967280  6.0023695056520099
  2.0413429353574788 11.1004301810640271 10.9644761170257112
  2.0728410146066785  2.8211671763609751  0.9442538100893921
  0.4269388118120077  9.8818078766849773  6.2112855966578735
  0.3919799866575203  2.0609958005881279 10.8576018432658170
  7.5574984620524264  6.0546816745938141  1.0273279028915228
 -0.9330908281405971  6.7506432757371408  6.0416970248813895
  5.4507569031415359 10.6858056357915761 10.9891756230625575
  5.4362128498853011  2.6129078568139681  0.9154487826573863
  5.7458400982589586  1.2254038554383311  6.1480229851569170
 -1.3936001859924856  4.9775205432840197 10.9062774347667908
  5.4793529148474818  8.9876087119839614  1.0947801043197676
  7.2227860668191912  9.7543413135498458  5.9436875142435959
  7.4184448516805634  1.9662296330287605 10.9206915922624503
  0.1954705962880868  5.9880162040974492  1.0123172471898492
  4.1003975122332319  5.3171763020357119 11.5831840833092770
  5.9282826928069694  6.2419322386392970 10.8741771069395110
  4.1590602955768201  5.1919937482814724  5.7665455923316298
  4.6240590876270709  4.4175954759817193  6.1297397407062748
  3.9081525476183510  4.4869118843541349 12.0882327527177882
  2.6963305426545991  5.0092006140203358  7.1943220089023239
  2.5037448448978865  4.0796991691492090  8.5398392052758343
  1.3105071651911842  5.1023639875094711  8.1084571339890594
  5.8864595850351238  6.5062360220767186  8.5808855737943084
  5.0721335216538650  6.5902062871189404  7.1551782206894128
  5.2924198809825631  7.9473480953989499  8.0975127932970192
  2.1930574216106784  8.1355695875581482 10.8095480901431955
  3.7811744068209845  7.8351986622544789 11.1261740160811797
  3.3612490444482357  8.8593586227461358  9.8990139571228397
  4.0053313040299683  5.9213284097391803  3.7697214350175741
  2.3296932714667671  5.0135722064831549  8.1557165406370071
  5.0858229694807839  6.9412406071049260  8.1160045773244622
  3.1047186902495678  7.9859270684664869 10.3738145530729593
  5.5111348802440849  5.2216407014217472 11.3372930186426402
  3.1680489904764753  6.5039163063596792  9.0998079432582166
